
Gurobi 11.0.1 (mac64[arm]) logging started Fri May  3 23:58:41 2024

Set parameter LogFile to value "../models/model_moo(May 03,2358).log"
Gurobi Optimizer version 11.0.1 build v11.0.1rc0 (mac64[arm] - Darwin 23.2.0 23C71)

CPU model: Apple M2
Thread count: 8 physical cores, 8 logical processors, using up to 8 threads

Optimize a model with 1797 rows, 1408 columns and 4423 nonzeros
Model fingerprint: 0xeb631f58
Variable types: 1041 continuous, 367 integer (367 binary)
Coefficient statistics:
  Matrix range     [1e+00, 2e+25]
  Objective range  [1e-02, 2e+02]
  Bounds range     [1e+00, 1e+00]
  RHS range        [1e+00, 1e+12]
Warning: Model contains large matrix coefficient range
Warning: Model contains large rhs
         Consider reformulating model or setting NumericFocus parameter
         to avoid numerical issues.

---------------------------------------------------------------------------
Multi-objectives: starting optimization with 2 objectives ... 
---------------------------------------------------------------------------

Multi-objectives: applying initial presolve ...
---------------------------------------------------------------------------

Presolve removed 1312 rows and 694 columns
Presolve time: 0.00s
Presolved: 485 rows, 714 columns, 1447 nonzeros
---------------------------------------------------------------------------

Multi-objectives: optimize objective 1 (objective_re_1) ...
---------------------------------------------------------------------------

Found heuristic solution: objective 0.0000000
Presolve removed 81 rows and 368 columns
Presolve time: 0.00s
Presolved: 404 rows, 346 columns, 998 nonzeros
Variable types: 0 continuous, 346 integer (346 binary)
Found heuristic solution: objective -664.9138427

Root relaxation: objective -1.104297e+03, 325 iterations, 0.00 seconds (0.00 work units)

    Nodes    |    Current Node    |     Objective Bounds      |     Work
 Expl Unexpl |  Obj  Depth IntInf | Incumbent    BestBd   Gap | It/Node Time

     0     0 -1104.2973    0   72 -664.91384 -1104.2973  66.1%     -    0s
H    0     0                    -1032.922351 -1104.2973  6.91%     -    0s
H    0     0                    -1094.652643 -1104.2973  0.88%     -    0s
H    0     0                    -1094.732833 -1104.2973  0.87%     -    0s

Cutting planes:
  Gomory: 1
  Zero half: 1

Explored 1 nodes (325 simplex iterations) in 0.02 seconds (0.01 work units)
Thread count was 8 (of 8 available processors)

Solution count 4: -1094.73 -1094.65 -1032.92 -664.914 
No other solutions better than -1094.73

Optimal solution found (tolerance 1.00e-04)
Best objective -1.094732832504e+03, best bound -1.094732832504e+03, gap 0.0000%
---------------------------------------------------------------------------

Multi-objectives: optimize objective 2 (objective_cost_2) ...
---------------------------------------------------------------------------


Loaded user MIP start with objective 525

Presolve removed 84 rows and 371 columns
Presolve time: 0.00s
Presolved: 402 rows, 343 columns, 1316 nonzeros
Found heuristic solution: objective -2334.511472
Variable types: 0 continuous, 343 integer (343 binary)

Root relaxation: objective -4.249933e+03, 522 iterations, 0.00 seconds (0.01 work units)

    Nodes    |    Current Node    |     Objective Bounds      |     Work
 Expl Unexpl |  Obj  Depth IntInf | Incumbent    BestBd   Gap | It/Node Time

     0     0 -4249.9329    0  117 -2334.5115 -4249.9329  82.0%     -    0s
H    0     0                    -3087.868083 -4249.9329  37.6%     -    0s

Cutting planes:
  Gomory: 2
  Zero half: 2

Explored 1 nodes (522 simplex iterations) in 0.04 seconds (0.03 work units)
Thread count was 8 (of 8 available processors)

Solution count 2: -3087.87 -2334.51 

Optimal solution found (tolerance 1.00e-04)
Best objective -3.087868083333e+03, best bound -3.088068154665e+03, gap 0.0065%

---------------------------------------------------------------------------
Multi-objectives: solved in 0.05 seconds (0.03 work units), solution count 6

